c FILE: 3-Insertions_3.col
c SOURCE: M. Caramia (caramia@iac.rm.cnr.it) and P. Dell'Olmo (paolo.dellolmo@uniroma1.it)
c DESCRIPTION: 3-Insertions graph of order 3%
p edge 56 110
e 1 2
e 1 4
e 1 13
e 1 15
e 2 3
e 2 12
e 2 14
e 3 6
e 3 13
e 3 17
e 4 5
e 4 12
e 4 16
e 5 8
e 5 15
e 5 19
e 6 7
e 6 14
e 6 18
e 7 10
e 7 17
e 7 21
e 8 9
e 8 16
e 8 20
e 9 11
e 9 19
e 9 22
e 10 11
e 10 18
e 10 22
e 11 20
e 11 21
e 12 24
e 12 26
e 13 23
e 13 25
e 14 24
e 14 28
e 15 23
e 15 27
e 16 26
e 16 30
e 17 25
e 17 29
e 18 28
e 18 32
e 19 27
e 19 31
e 20 30
e 20 33
e 21 29
e 21 33
e 22 31
e 22 32
e 23 35
e 23 37
e 24 34
e 24 36
e 25 35
e 25 39
e 26 34
e 26 38
e 27 37
e 27 41
e 28 36
e 28 40
e 29 39
e 29 43
e 30 38
e 30 42
e 31 41
e 31 44
e 32 40
e 32 44
e 33 42
e 33 43
e 34 46
e 34 48
e 35 45
e 35 47
e 36 46
e 36 50
e 37 45
e 37 49
e 38 48
e 38 52
e 39 47
e 39 51
e 40 50
e 40 54
e 41 49
e 41 53
e 42 52
e 42 55
e 43 51
e 43 55
e 44 53
e 44 54
e 45 56
e 46 56
e 47 56
e 48 56
e 49 56
e 50 56
e 51 56
e 52 56
e 53 56
e 54 56
e 55 56
